Minimize
	value: tt

Subject to
tt + 1000 s_1_1 > 0.0
tt - t_1_1 - 1001.532479 s_1_1  + 0.766240 s_1_8  + 0.766240 s_1_7  > -999.284489
tt + 1000 s_2_1 > 0.0
tt - t_2_1 - 1001.346781 s_2_1  + 0.673391 s_2_8  + 0.673391 s_2_7  > -996.005225
tt + 1000 s_1_2 > 0.0
tt - t_1_2 - 1000.766240 s_1_2  + 0.766240 s_1_7  > -999.302889
tt + 1000 s_2_2 > 0.0
tt - t_2_2 - 1000.673391 s_2_2  + 0.673391 s_2_7  > -995.920758
tt + 1000 s_1_3 > 0.0
tt - t_1_3 - 1001.532479 s_1_3  + 0.766240 s_1_8  + 0.766240 s_1_7  > -999.922400
tt + 1000 s_2_3 > 0.0
tt - t_2_3 - 1001.346781 s_2_3  + 0.673391 s_2_8  + 0.673391 s_2_7  > -998.605200
tt + 1000 s_1_4 > 0.0
tt - t_1_4 - 1000.766240 s_1_4  + 0.766240 s_1_7  > -999.881533
tt + 1000 s_2_4 > 0.0
tt - t_2_4 - 1000.673391 s_2_4  + 0.673391 s_2_7  > -997.931654
tt + 1000 s_1_5 > 0.0
tt - t_1_5 - 1000.766240 s_1_5  + 0.766240 s_1_8  > -999.690089
tt + 1000 s_2_5 > 0.0
tt - t_2_5 - 1000.673391 s_2_5  + 0.673391 s_2_8  > -997.818878
tt + 1000 s_1_6 > 0.0
tt - t_1_6 - 1004.597438 s_1_6  + 0.766240 s_1_5  + 0.766240 s_1_2  + 0.766240 s_1_4  + 0.766240 s_1_7  + 0.766240 s_1_3  + 0.766240 s_1_1  > -999.960400
tt + 1000 s_2_6 > 0.0
tt - t_2_6 - 1004.040343 s_2_6  + 0.673391 s_2_5  + 0.673391 s_2_2  + 0.673391 s_2_4  + 0.673391 s_2_7  + 0.673391 s_2_3  + 0.673391 s_2_1  > -999.114250
tt + 1000 s_1_7 > 0.0
tt - t_1_7 - 1000.000000 s_1_7  > -997.886711
tt + 1000 s_2_7 > 0.0
tt - t_2_7 - 1000.000000 s_2_7  > -990.172755
tt + 1000 s_1_8 > 0.0
tt - t_1_8 - 1000.000000 s_1_8  > -999.450600
tt + 1000 s_2_8 > 0.0
tt - t_2_8 - 1000.000000 s_2_8  > -998.720056
s_1_1 + s_2_1 = 1
s_1_2 + s_2_2 = 1
s_1_3 + s_2_3 = 1
s_1_4 + s_2_4 = 1
s_1_5 + s_2_5 = 1
s_1_6 + s_2_6 = 1
s_1_7 + s_2_7 = 1
s_1_8 + s_2_8 = 1
s_1_1 + s_1_2 + 1000 r_1_1_2 >= 2
- s_1_1 - s_1_2 - 1000 r_1_1_2 >= -1001
t_1_1 - t_1_2 - 1000.000000 u_1_1_2 - 0.766240 s_1_2  + 0.766240 s_1_7  + 2000.000000 r_1_1_2 > -999.302889
s_2_1 + s_2_2 + 1000 r_2_1_2 >= 2
- s_2_1 - s_2_2 - 1000 r_2_1_2 >= -1001
t_2_1 - t_2_2 - 1000.000000 u_2_1_2 - 0.673391 s_2_2  + 0.673391 s_2_7  + 2000.000000 r_2_1_2 > -995.920758
s_1_1 + s_1_3 + 1000 r_1_1_3 >= 2
- s_1_1 - s_1_3 - 1000 r_1_1_3 >= -1001
t_1_1 - t_1_3 - 1000.000000 u_1_1_3 - 1.532479 s_1_3  + 0.766240 s_1_8  + 0.766240 s_1_7  + 2000.000000 r_1_1_3 > -999.922400
s_2_1 + s_2_3 + 1000 r_2_1_3 >= 2
- s_2_1 - s_2_3 - 1000 r_2_1_3 >= -1001
t_2_1 - t_2_3 - 1000.000000 u_2_1_3 - 1.346781 s_2_3  + 0.673391 s_2_8  + 0.673391 s_2_7  + 2000.000000 r_2_1_3 > -998.605200
s_1_1 + s_1_4 + 1000 r_1_1_4 >= 2
- s_1_1 - s_1_4 - 1000 r_1_1_4 >= -1001
t_1_1 - t_1_4 - 1000.000000 u_1_1_4 - 0.766240 s_1_4  + 0.766240 s_1_7  + 2000.000000 r_1_1_4 > -999.881533
s_2_1 + s_2_4 + 1000 r_2_1_4 >= 2
- s_2_1 - s_2_4 - 1000 r_2_1_4 >= -1001
t_2_1 - t_2_4 - 1000.000000 u_2_1_4 - 0.673391 s_2_4  + 0.673391 s_2_7  + 2000.000000 r_2_1_4 > -997.931654
s_1_1 + s_1_5 + 1000 r_1_1_5 >= 2
- s_1_1 - s_1_5 - 1000 r_1_1_5 >= -1001
t_1_1 - t_1_5 - 1000.000000 u_1_1_5 - 0.766240 s_1_5  + 0.766240 s_1_8  + 2000.000000 r_1_1_5 > -999.690089
s_2_1 + s_2_5 + 1000 r_2_1_5 >= 2
- s_2_1 - s_2_5 - 1000 r_2_1_5 >= -1001
t_2_1 - t_2_5 - 1000.000000 u_2_1_5 - 0.673391 s_2_5  + 0.673391 s_2_8  + 2000.000000 r_2_1_5 > -997.818878
t_1_6 - t_1_1 - 1001.532479 s_1_1  + 0.766240 s_1_8  + 0.766240 s_1_7  > -999.284489
t_1_6 - t_2_1 - 1001.346781 s_2_1  + 0.673391 s_2_8  + 0.673391 s_2_7  > -996.005225
t_2_6 - t_1_1 - 1001.532479 s_1_1  + 0.766240 s_1_8  + 0.766240 s_1_7  > -999.284489
t_2_6 - t_2_1 - 1001.346781 s_2_1  + 0.673391 s_2_8  + 0.673391 s_2_7  > -996.005225
t_1_1 - t_1_7 - 1000.000000 s_1_7  > -997.886711
t_1_1 - t_2_7 - 1000.000000 s_2_7  > -990.172755
t_2_1 - t_1_7 - 1000.000000 s_1_7  > -997.886711
t_2_1 - t_2_7 - 1000.000000 s_2_7  > -990.172755
t_1_1 - t_1_8 - 1000.000000 s_1_8  > -999.450600
t_1_1 - t_2_8 - 1000.000000 s_2_8  > -998.720056
t_2_1 - t_1_8 - 1000.000000 s_1_8  > -999.450600
t_2_1 - t_2_8 - 1000.000000 s_2_8  > -998.720056
s_1_2 + s_1_1 + 1000 r_1_1_2 >= 2
- s_1_2 - s_1_1 - 1000 r_1_1_2 >= -1001
t_1_2 - t_1_1 + 1000.000000 u_1_1_2 - 1.532479 s_1_1  + 0.766240 s_1_8  + 0.766240 s_1_7  + 2000.000000 r_1_1_2 > 0.715511
s_2_2 + s_2_1 + 1000 r_2_1_2 >= 2
- s_2_2 - s_2_1 - 1000 r_2_1_2 >= -1001
t_2_2 - t_2_1 + 1000.000000 u_2_1_2 - 1.346781 s_2_1  + 0.673391 s_2_8  + 0.673391 s_2_7  + 2000.000000 r_2_1_2 > 3.994775
s_1_2 + s_1_3 + 1000 r_1_2_3 >= 2
- s_1_2 - s_1_3 - 1000 r_1_2_3 >= -1001
t_1_2 - t_1_3 - 1000.000000 u_1_2_3 - 1.532479 s_1_3  + 0.766240 s_1_8  + 0.766240 s_1_7  + 2000.000000 r_1_2_3 > -999.922400
s_2_2 + s_2_3 + 1000 r_2_2_3 >= 2
- s_2_2 - s_2_3 - 1000 r_2_2_3 >= -1001
t_2_2 - t_2_3 - 1000.000000 u_2_2_3 - 1.346781 s_2_3  + 0.673391 s_2_8  + 0.673391 s_2_7  + 2000.000000 r_2_2_3 > -998.605200
s_1_2 + s_1_4 + 1000 r_1_2_4 >= 2
- s_1_2 - s_1_4 - 1000 r_1_2_4 >= -1001
t_1_2 - t_1_4 - 1000.000000 u_1_2_4 - 0.766240 s_1_4  + 0.766240 s_1_7  + 2000.000000 r_1_2_4 > -999.881533
s_2_2 + s_2_4 + 1000 r_2_2_4 >= 2
- s_2_2 - s_2_4 - 1000 r_2_2_4 >= -1001
t_2_2 - t_2_4 - 1000.000000 u_2_2_4 - 0.673391 s_2_4  + 0.673391 s_2_7  + 2000.000000 r_2_2_4 > -997.931654
s_1_2 + s_1_5 + 1000 r_1_2_5 >= 2
- s_1_2 - s_1_5 - 1000 r_1_2_5 >= -1001
t_1_2 - t_1_5 - 1000.000000 u_1_2_5 - 0.766240 s_1_5  + 0.766240 s_1_8  + 2000.000000 r_1_2_5 > -999.690089
s_2_2 + s_2_5 + 1000 r_2_2_5 >= 2
- s_2_2 - s_2_5 - 1000 r_2_2_5 >= -1001
t_2_2 - t_2_5 - 1000.000000 u_2_2_5 - 0.673391 s_2_5  + 0.673391 s_2_8  + 2000.000000 r_2_2_5 > -997.818878
t_1_6 - t_1_2 - 1000.766240 s_1_2  + 0.766240 s_1_7  > -999.302889
t_1_6 - t_2_2 - 1000.673391 s_2_2  + 0.673391 s_2_7  > -995.920758
t_2_6 - t_1_2 - 1000.766240 s_1_2  + 0.766240 s_1_7  > -999.302889
t_2_6 - t_2_2 - 1000.673391 s_2_2  + 0.673391 s_2_7  > -995.920758
t_1_2 - t_1_7 - 1000.000000 s_1_7  > -997.886711
t_1_2 - t_2_7 - 1000.000000 s_2_7  > -990.172755
t_2_2 - t_1_7 - 1000.000000 s_1_7  > -997.886711
t_2_2 - t_2_7 - 1000.000000 s_2_7  > -990.172755
s_1_2 + s_1_8 + 1000 r_1_2_8 >= 2
- s_1_2 - s_1_8 - 1000 r_1_2_8 >= -1001
t_1_2 - t_1_8 - 1000.000000 u_1_2_8 - 0.000000 s_1_8  + 2000.000000 r_1_2_8 > -999.450600
s_2_2 + s_2_8 + 1000 r_2_2_8 >= 2
- s_2_2 - s_2_8 - 1000 r_2_2_8 >= -1001
t_2_2 - t_2_8 - 1000.000000 u_2_2_8 - 0.000000 s_2_8  + 2000.000000 r_2_2_8 > -998.720056
s_1_3 + s_1_1 + 1000 r_1_1_3 >= 2
- s_1_3 - s_1_1 - 1000 r_1_1_3 >= -1001
t_1_3 - t_1_1 + 1000.000000 u_1_1_3 - 1.532479 s_1_1  + 0.766240 s_1_8  + 0.766240 s_1_7  + 2000.000000 r_1_1_3 > 0.715511
s_2_3 + s_2_1 + 1000 r_2_1_3 >= 2
- s_2_3 - s_2_1 - 1000 r_2_1_3 >= -1001
t_2_3 - t_2_1 + 1000.000000 u_2_1_3 - 1.346781 s_2_1  + 0.673391 s_2_8  + 0.673391 s_2_7  + 2000.000000 r_2_1_3 > 3.994775
s_1_3 + s_1_2 + 1000 r_1_2_3 >= 2
- s_1_3 - s_1_2 - 1000 r_1_2_3 >= -1001
t_1_3 - t_1_2 + 1000.000000 u_1_2_3 - 0.766240 s_1_2  + 0.766240 s_1_7  + 2000.000000 r_1_2_3 > 0.697111
s_2_3 + s_2_2 + 1000 r_2_2_3 >= 2
- s_2_3 - s_2_2 - 1000 r_2_2_3 >= -1001
t_2_3 - t_2_2 + 1000.000000 u_2_2_3 - 0.673391 s_2_2  + 0.673391 s_2_7  + 2000.000000 r_2_2_3 > 4.079242
s_1_3 + s_1_4 + 1000 r_1_3_4 >= 2
- s_1_3 - s_1_4 - 1000 r_1_3_4 >= -1001
t_1_3 - t_1_4 - 1000.000000 u_1_3_4 - 0.766240 s_1_4  + 0.766240 s_1_7  + 2000.000000 r_1_3_4 > -999.881533
s_2_3 + s_2_4 + 1000 r_2_3_4 >= 2
- s_2_3 - s_2_4 - 1000 r_2_3_4 >= -1001
t_2_3 - t_2_4 - 1000.000000 u_2_3_4 - 0.673391 s_2_4  + 0.673391 s_2_7  + 2000.000000 r_2_3_4 > -997.931654
s_1_3 + s_1_5 + 1000 r_1_3_5 >= 2
- s_1_3 - s_1_5 - 1000 r_1_3_5 >= -1001
t_1_3 - t_1_5 - 1000.000000 u_1_3_5 - 0.766240 s_1_5  + 0.766240 s_1_8  + 2000.000000 r_1_3_5 > -999.690089
s_2_3 + s_2_5 + 1000 r_2_3_5 >= 2
- s_2_3 - s_2_5 - 1000 r_2_3_5 >= -1001
t_2_3 - t_2_5 - 1000.000000 u_2_3_5 - 0.673391 s_2_5  + 0.673391 s_2_8  + 2000.000000 r_2_3_5 > -997.818878
t_1_6 - t_1_3 - 1001.532479 s_1_3  + 0.766240 s_1_8  + 0.766240 s_1_7  > -999.922400
t_1_6 - t_2_3 - 1001.346781 s_2_3  + 0.673391 s_2_8  + 0.673391 s_2_7  > -998.605200
t_2_6 - t_1_3 - 1001.532479 s_1_3  + 0.766240 s_1_8  + 0.766240 s_1_7  > -999.922400
t_2_6 - t_2_3 - 1001.346781 s_2_3  + 0.673391 s_2_8  + 0.673391 s_2_7  > -998.605200
t_1_3 - t_1_7 - 1000.000000 s_1_7  > -997.886711
t_1_3 - t_2_7 - 1000.000000 s_2_7  > -990.172755
t_2_3 - t_1_7 - 1000.000000 s_1_7  > -997.886711
t_2_3 - t_2_7 - 1000.000000 s_2_7  > -990.172755
t_1_3 - t_1_8 - 1000.000000 s_1_8  > -999.450600
t_1_3 - t_2_8 - 1000.000000 s_2_8  > -998.720056
t_2_3 - t_1_8 - 1000.000000 s_1_8  > -999.450600
t_2_3 - t_2_8 - 1000.000000 s_2_8  > -998.720056
s_1_4 + s_1_1 + 1000 r_1_1_4 >= 2
- s_1_4 - s_1_1 - 1000 r_1_1_4 >= -1001
t_1_4 - t_1_1 + 1000.000000 u_1_1_4 - 1.532479 s_1_1  + 0.766240 s_1_8  + 0.766240 s_1_7  + 2000.000000 r_1_1_4 > 0.715511
s_2_4 + s_2_1 + 1000 r_2_1_4 >= 2
- s_2_4 - s_2_1 - 1000 r_2_1_4 >= -1001
t_2_4 - t_2_1 + 1000.000000 u_2_1_4 - 1.346781 s_2_1  + 0.673391 s_2_8  + 0.673391 s_2_7  + 2000.000000 r_2_1_4 > 3.994775
s_1_4 + s_1_2 + 1000 r_1_2_4 >= 2
- s_1_4 - s_1_2 - 1000 r_1_2_4 >= -1001
t_1_4 - t_1_2 + 1000.000000 u_1_2_4 - 0.766240 s_1_2  + 0.766240 s_1_7  + 2000.000000 r_1_2_4 > 0.697111
s_2_4 + s_2_2 + 1000 r_2_2_4 >= 2
- s_2_4 - s_2_2 - 1000 r_2_2_4 >= -1001
t_2_4 - t_2_2 + 1000.000000 u_2_2_4 - 0.673391 s_2_2  + 0.673391 s_2_7  + 2000.000000 r_2_2_4 > 4.079242
s_1_4 + s_1_3 + 1000 r_1_3_4 >= 2
- s_1_4 - s_1_3 - 1000 r_1_3_4 >= -1001
t_1_4 - t_1_3 + 1000.000000 u_1_3_4 - 1.532479 s_1_3  + 0.766240 s_1_8  + 0.766240 s_1_7  + 2000.000000 r_1_3_4 > 0.077600
s_2_4 + s_2_3 + 1000 r_2_3_4 >= 2
- s_2_4 - s_2_3 - 1000 r_2_3_4 >= -1001
t_2_4 - t_2_3 + 1000.000000 u_2_3_4 - 1.346781 s_2_3  + 0.673391 s_2_8  + 0.673391 s_2_7  + 2000.000000 r_2_3_4 > 1.394800
s_1_4 + s_1_5 + 1000 r_1_4_5 >= 2
- s_1_4 - s_1_5 - 1000 r_1_4_5 >= -1001
t_1_4 - t_1_5 - 1000.000000 u_1_4_5 - 0.766240 s_1_5  + 0.766240 s_1_8  + 2000.000000 r_1_4_5 > -999.690089
s_2_4 + s_2_5 + 1000 r_2_4_5 >= 2
- s_2_4 - s_2_5 - 1000 r_2_4_5 >= -1001
t_2_4 - t_2_5 - 1000.000000 u_2_4_5 - 0.673391 s_2_5  + 0.673391 s_2_8  + 2000.000000 r_2_4_5 > -997.818878
t_1_6 - t_1_4 - 1000.766240 s_1_4  + 0.766240 s_1_7  > -999.881533
t_1_6 - t_2_4 - 1000.673391 s_2_4  + 0.673391 s_2_7  > -997.931654
t_2_6 - t_1_4 - 1000.766240 s_1_4  + 0.766240 s_1_7  > -999.881533
t_2_6 - t_2_4 - 1000.673391 s_2_4  + 0.673391 s_2_7  > -997.931654
t_1_4 - t_1_7 - 1000.000000 s_1_7  > -997.886711
t_1_4 - t_2_7 - 1000.000000 s_2_7  > -990.172755
t_2_4 - t_1_7 - 1000.000000 s_1_7  > -997.886711
t_2_4 - t_2_7 - 1000.000000 s_2_7  > -990.172755
s_1_4 + s_1_8 + 1000 r_1_4_8 >= 2
- s_1_4 - s_1_8 - 1000 r_1_4_8 >= -1001
t_1_4 - t_1_8 - 1000.000000 u_1_4_8 - 0.000000 s_1_8  + 2000.000000 r_1_4_8 > -999.450600
s_2_4 + s_2_8 + 1000 r_2_4_8 >= 2
- s_2_4 - s_2_8 - 1000 r_2_4_8 >= -1001
t_2_4 - t_2_8 - 1000.000000 u_2_4_8 - 0.000000 s_2_8  + 2000.000000 r_2_4_8 > -998.720056
s_1_5 + s_1_1 + 1000 r_1_1_5 >= 2
- s_1_5 - s_1_1 - 1000 r_1_1_5 >= -1001
t_1_5 - t_1_1 + 1000.000000 u_1_1_5 - 1.532479 s_1_1  + 0.766240 s_1_8  + 0.766240 s_1_7  + 2000.000000 r_1_1_5 > 0.715511
s_2_5 + s_2_1 + 1000 r_2_1_5 >= 2
- s_2_5 - s_2_1 - 1000 r_2_1_5 >= -1001
t_2_5 - t_2_1 + 1000.000000 u_2_1_5 - 1.346781 s_2_1  + 0.673391 s_2_8  + 0.673391 s_2_7  + 2000.000000 r_2_1_5 > 3.994775
s_1_5 + s_1_2 + 1000 r_1_2_5 >= 2
- s_1_5 - s_1_2 - 1000 r_1_2_5 >= -1001
t_1_5 - t_1_2 + 1000.000000 u_1_2_5 - 0.766240 s_1_2  + 0.766240 s_1_7  + 2000.000000 r_1_2_5 > 0.697111
s_2_5 + s_2_2 + 1000 r_2_2_5 >= 2
- s_2_5 - s_2_2 - 1000 r_2_2_5 >= -1001
t_2_5 - t_2_2 + 1000.000000 u_2_2_5 - 0.673391 s_2_2  + 0.673391 s_2_7  + 2000.000000 r_2_2_5 > 4.079242
s_1_5 + s_1_3 + 1000 r_1_3_5 >= 2
- s_1_5 - s_1_3 - 1000 r_1_3_5 >= -1001
t_1_5 - t_1_3 + 1000.000000 u_1_3_5 - 1.532479 s_1_3  + 0.766240 s_1_8  + 0.766240 s_1_7  + 2000.000000 r_1_3_5 > 0.077600
s_2_5 + s_2_3 + 1000 r_2_3_5 >= 2
- s_2_5 - s_2_3 - 1000 r_2_3_5 >= -1001
t_2_5 - t_2_3 + 1000.000000 u_2_3_5 - 1.346781 s_2_3  + 0.673391 s_2_8  + 0.673391 s_2_7  + 2000.000000 r_2_3_5 > 1.394800
s_1_5 + s_1_4 + 1000 r_1_4_5 >= 2
- s_1_5 - s_1_4 - 1000 r_1_4_5 >= -1001
t_1_5 - t_1_4 + 1000.000000 u_1_4_5 - 0.766240 s_1_4  + 0.766240 s_1_7  + 2000.000000 r_1_4_5 > 0.118467
s_2_5 + s_2_4 + 1000 r_2_4_5 >= 2
- s_2_5 - s_2_4 - 1000 r_2_4_5 >= -1001
t_2_5 - t_2_4 + 1000.000000 u_2_4_5 - 0.673391 s_2_4  + 0.673391 s_2_7  + 2000.000000 r_2_4_5 > 2.068346
t_1_6 - t_1_5 - 1000.766240 s_1_5  + 0.766240 s_1_8  > -999.690089
t_1_6 - t_2_5 - 1000.673391 s_2_5  + 0.673391 s_2_8  > -997.818878
t_2_6 - t_1_5 - 1000.766240 s_1_5  + 0.766240 s_1_8  > -999.690089
t_2_6 - t_2_5 - 1000.673391 s_2_5  + 0.673391 s_2_8  > -997.818878
s_1_5 + s_1_7 + 1000 r_1_5_7 >= 2
- s_1_5 - s_1_7 - 1000 r_1_5_7 >= -1001
t_1_5 - t_1_7 - 1000.000000 u_1_5_7 - 0.000000 s_1_7  + 2000.000000 r_1_5_7 > -997.886711
s_2_5 + s_2_7 + 1000 r_2_5_7 >= 2
- s_2_5 - s_2_7 - 1000 r_2_5_7 >= -1001
t_2_5 - t_2_7 - 1000.000000 u_2_5_7 - 0.000000 s_2_7  + 2000.000000 r_2_5_7 > -990.172755
t_1_5 - t_1_8 - 1000.000000 s_1_8  > -999.450600
t_1_5 - t_2_8 - 1000.000000 s_2_8  > -998.720056
t_2_5 - t_1_8 - 1000.000000 s_1_8  > -999.450600
t_2_5 - t_2_8 - 1000.000000 s_2_8  > -998.720056
t_1_6 - t_1_7 - 1000.000000 s_1_7  > -997.886711
t_1_6 - t_2_7 - 1000.000000 s_2_7  > -990.172755
t_2_6 - t_1_7 - 1000.000000 s_1_7  > -997.886711
t_2_6 - t_2_7 - 1000.000000 s_2_7  > -990.172755
s_1_7 + s_1_5 + 1000 r_1_5_7 >= 2
- s_1_7 - s_1_5 - 1000 r_1_5_7 >= -1001
t_1_7 - t_1_5 + 1000.000000 u_1_5_7 - 0.766240 s_1_5  + 0.766240 s_1_8  + 2000.000000 r_1_5_7 > 0.309911
s_2_7 + s_2_5 + 1000 r_2_5_7 >= 2
- s_2_7 - s_2_5 - 1000 r_2_5_7 >= -1001
t_2_7 - t_2_5 + 1000.000000 u_2_5_7 - 0.673391 s_2_5  + 0.673391 s_2_8  + 2000.000000 r_2_5_7 > 2.181122
s_1_7 + s_1_8 + 1000 r_1_7_8 >= 2
- s_1_7 - s_1_8 - 1000 r_1_7_8 >= -1001
t_1_7 - t_1_8 - 1000.000000 u_1_7_8 - 0.000000 s_1_8  + 2000.000000 r_1_7_8 > -999.450600
s_2_7 + s_2_8 + 1000 r_2_7_8 >= 2
- s_2_7 - s_2_8 - 1000 r_2_7_8 >= -1001
t_2_7 - t_2_8 - 1000.000000 u_2_7_8 - 0.000000 s_2_8  + 2000.000000 r_2_7_8 > -998.720056
s_1_8 + s_1_2 + 1000 r_1_2_8 >= 2
- s_1_8 - s_1_2 - 1000 r_1_2_8 >= -1001
t_1_8 - t_1_2 + 1000.000000 u_1_2_8 - 0.766240 s_1_2  + 0.766240 s_1_7  + 2000.000000 r_1_2_8 > 0.697111
s_2_8 + s_2_2 + 1000 r_2_2_8 >= 2
- s_2_8 - s_2_2 - 1000 r_2_2_8 >= -1001
t_2_8 - t_2_2 + 1000.000000 u_2_2_8 - 0.673391 s_2_2  + 0.673391 s_2_7  + 2000.000000 r_2_2_8 > 4.079242
s_1_8 + s_1_4 + 1000 r_1_4_8 >= 2
- s_1_8 - s_1_4 - 1000 r_1_4_8 >= -1001
t_1_8 - t_1_4 + 1000.000000 u_1_4_8 - 0.766240 s_1_4  + 0.766240 s_1_7  + 2000.000000 r_1_4_8 > 0.118467
s_2_8 + s_2_4 + 1000 r_2_4_8 >= 2
- s_2_8 - s_2_4 - 1000 r_2_4_8 >= -1001
t_2_8 - t_2_4 + 1000.000000 u_2_4_8 - 0.673391 s_2_4  + 0.673391 s_2_7  + 2000.000000 r_2_4_8 > 2.068346
s_1_8 + s_1_7 + 1000 r_1_7_8 >= 2
- s_1_8 - s_1_7 - 1000 r_1_7_8 >= -1001
t_1_8 - t_1_7 + 1000.000000 u_1_7_8 - 0.000000 s_1_7  + 2000.000000 r_1_7_8 > 2.113289
s_2_8 + s_2_7 + 1000 r_2_7_8 >= 2
- s_2_8 - s_2_7 - 1000 r_2_7_8 >= -1001
t_2_8 - t_2_7 + 1000.000000 u_2_7_8 - 0.000000 s_2_7  + 2000.000000 r_2_7_8 > 9.827245
Binary
s_1_1
s_2_1
s_1_2
s_2_2
s_1_3
s_2_3
s_1_4
s_2_4
s_1_5
s_2_5
s_1_6
s_2_6
s_1_7
s_2_7
s_1_8
s_2_8
u_1_1_2
r_1_1_2
u_2_1_2
r_2_1_2
u_1_1_3
r_1_1_3
u_2_1_3
r_2_1_3
u_1_1_4
r_1_1_4
u_2_1_4
r_2_1_4
u_1_1_5
r_1_1_5
u_2_1_5
r_2_1_5
u_1_2_3
r_1_2_3
u_2_2_3
r_2_2_3
u_1_2_4
r_1_2_4
u_2_2_4
r_2_2_4
u_1_2_5
r_1_2_5
u_2_2_5
r_2_2_5
u_1_2_8
r_1_2_8
u_2_2_8
r_2_2_8
u_1_3_4
r_1_3_4
u_2_3_4
r_2_3_4
u_1_3_5
r_1_3_5
u_2_3_5
r_2_3_5
u_1_4_5
r_1_4_5
u_2_4_5
r_2_4_5
u_1_4_8
r_1_4_8
u_2_4_8
r_2_4_8
u_1_5_7
r_1_5_7
u_2_5_7
r_2_5_7
u_1_7_8
r_1_7_8
u_2_7_8
r_2_7_8

End
